30
1 0 1
2 0 8
2 1 6
3 0 6
3 1 7
3 2 4
4 0 9
4 1 3
4 2 6
4 3 7
5 0 8
5 1 10
5 2 10
5 3 10
5 4 10
6 0 13
6 1 5
6 2 7
6 3 4
6 4 7
6 5 1
7 0 9
7 1 4
7 2 10
7 3 8
7 4 4
7 5 10
7 6 3
8 0 3
8 1 5
8 2 13
8 3 8
8 4 7
8 5 13
8 6 7
8 7 4
9 0 3
9 1 9
9 2 12
9 3 4
9 4 12
9 5 2
9 6 12
9 7 9
9 8 13
10 0 6
10 1 2
10 2 6
10 3 1
10 4 3
10 5 2
10 6 12
10 7 11
10 8 2
10 9 5
11 0 8
11 1 12
11 2 13
11 3 1
11 4 12
11 5 12
11 6 13
11 7 2
11 8 9
11 9 7
11 10 9
12 0 5
12 1 10
12 2 1
12 3 8
12 4 4
12 5 1
12 6 2
12 7 1
12 8 3
12 9 13
12 10 3
12 11 9
13 0 10
13 1 1
13 2 6
13 3 1
13 4 7
13 5 5
13 6 4
13 7 13
13 8 11
13 9 10
13 10 8
13 11 5
13 12 10
14 0 9
14 1 2
14 2 7
14 3 4
14 4 7
14 5 10
14 6 13
14 7 11
14 8 6
14 9 2
14 10 1
14 11 13
14 12 2
14 13 8
15 0 12
15 1 9
15 2 7
15 3 3
15 4 6
15 5 8
15 6 13
15 7 13
15 8 7
15 9 7
15 10 7
15 11 13
15 12 9
15 13 13
15 14 7
16 0 13
16 1 3
16 2 12
16 3 7
16 4 10
16 5 11
16 6 11
16 7 1
16 8 7
16 9 7
16 10 6
16 11 4
16 12 4
16 13 3
16 14 6
16 15 4
17 0 9
17 1 10
17 2 11
17 3 5
17 4 8
17 5 11
17 6 5
17 7 6
17 8 1
17 9 6
17 10 8
17 11 9
17 12 9
17 13 12
17 14 8
17 15 9
17 16 1
18 0 1
18 1 12
18 2 6
18 3 13
18 4 12
18 5 12
18 6 8
18 7 6
18 8 1
18 9 1
18 10 12
18 11 11
18 12 8
18 13 5
18 14 9
18 15 1
18 16 6
18 17 5
19 0 11
19 1 12
19 2 12
19 3 8
19 4 4
19 5 10
19 6 4
19 7 6
19 8 2
19 9 2
19 10 13
19 11 3
19 12 7
19 13 5
19 14 8
19 15 8
19 16 3
19 17 5
19 18 5
20 0 3
20 1 4
20 2 6
20 3 10
20 4 11
20 5 7
20 6 11
20 7 12
20 8 7
20 9 8
20 10 6
20 11 3
20 12 7
20 13 4
20 14 5
20 15 3
20 16 5
20 17 7
20 18 2
20 19 8
21 0 13
21 1 9
21 2 3
21 3 8
21 4 11
21 5 9
21 6 11
21 7 10
21 8 11
21 9 11
21 10 9
21 11 9
21 12 3
21 13 5
21 14 11
21 15 7
21 16 13
21 17 8
21 18 7
21 19 12
21 20 11
22 0 7
22 1 6
22 2 8
22 3 7
22 4 2
22 5 13
22 6 10
22 7 4
22 8 4
22 9 10
22 10 7
22 11 5
22 12 13
22 13 8
22 14 11
22 15 3
22 16 2
22 17 13
22 18 5
22 19 9
22 20 6
22 21 9
23 0 11
23 1 9
23 2 10
23 3 10
23 4 4
23 5 11
23 6 12
23 7 11
23 8 5
23 9 1
23 10 8
23 11 6
23 12 8
23 13 8
23 14 8
23 15 4
23 16 9
23 17 5
23 18 12
23 19 10
23 20 13
23 21 9
23 22 11
24 0 10
24 1 8
24 2 2
24 3 1
24 4 8
24 5 6
24 6 2
24 7 3
24 8 7
24 9 7
24 10 11
24 11 6
24 12 8
24 13 11
24 14 10
24 15 8
24 16 8
24 17 11
24 18 12
24 19 3
24 20 10
24 21 2
24 22 2
24 23 11
25 0 5
25 1 9
25 2 13
25 3 10
25 4 12
25 5 2
25 6 12
25 7 12
25 8 13
25 9 5
25 10 2
25 11 7
25 12 6
25 13 11
25 14 3
25 15 7
25 16 12
25 17 10
25 18 3
25 19 12
25 20 8
25 21 11
25 22 1
25 23 10
25 24 2
26 0 13
26 1 10
26 2 5
26 3 3
26 4 8
26 5 2
26 6 8
26 7 9
26 8 3
26 9 10
26 10 11
26 11 3
26 12 13
26 13 2
26 14 10
26 15 3
26 16 3
26 17 7
26 18 11
26 19 9
26 20 3
26 21 10
26 22 7
26 23 9
26 24 13
26 25 5
27 0 6
27 1 11
27 2 3
27 3 10
27 4 9
27 5 10
27 6 9
27 7 8
27 8 11
27 9 3
27 10 1
27 11 8
27 12 6
27 13 11
27 14 4
27 15 4
27 16 4
27 17 13
27 18 7
27 19 11
27 20 7
27 21 9
27 22 6
27 23 1
27 24 2
27 25 4
27 26 10
28 0 2
28 1 5
28 2 3
28 3 10
28 4 2
28 5 7
28 6 1
28 7 13
28 8 8
28 9 5
28 10 7
28 11 12
28 12 3
28 13 12
28 14 9
28 15 9
28 16 2
28 17 3
28 18 11
28 19 4
28 20 6
28 21 9
28 22 10
28 23 5
28 24 6
28 25 2
28 26 5
28 27 12
29 0 3
29 1 4
29 2 4
29 3 9
29 4 8
29 5 8
29 6 9
29 7 1
29 8 3
29 9 4
29 10 11
29 11 3
29 12 12
29 13 12
29 14 10
29 15 11
29 16 9
29 17 6
29 18 12
29 19 5
29 20 12
29 21 6
29 22 11
29 23 1
29 24 12
29 25 4
29 26 3
29 27 13
29 28 10
